Route #1: 33 34 35 36 37 38 39 40 1 2 3 4 6 7 8 9 10 12 13 14 15
Route #2: 23 24 25 26 27 28 29 69 68 67 66 65 64 63 62 61 60 59 58 57 56 55 16 17 18 19 20 21 22
Route #3: 11 51 50 49 48 46 44 43 42 41 80 79 78 77 76 75 74 73 72 112 153 152 111 71 31 30
Route #4: 53 54 94 95 96 97 98 99 100 101 102 103 104 105 106 107 108 109 149 150 151 191 192 193 194 154 113
Route #5: 5 45 85 84 83 82 81 120 119 118 117 116 115 156 157 158 159 160 121 122 123 124 125 126 127 87 47
Route #6: 52 90 91 92 132 171 170 169 168 167 166 165 164 163 162 161 200 199 198 197 196 236 235 195 155 114 32
Route #7: 86 205 204 203 202 201 240 239 238 237 234 233 232 231 230 229 228 227 226 225 224 223 222 221 220 219 218
Route #8: 93 133 134 135 136 176 175 215 216 217 177 178 179 180 181 182 183 184 185 186 145 144 143 142 141 140 139 138 137
Route #9: 88 128 206 207 208 209 210 211 212 213 214 174 173 172 131 130 129 89 146 147 148 187 188 189 190 110 70
Cost 6032
